32	0

0	1	2
5	1	3
9	1	4
8	1	5
10	1	6
7	1	7
7	1	8
3	2	9	10
7	1	11
5	1	11
7	2	12	13
8	1	14
8	1	14
6	1	15
1	1	16
8	2	17	18
10	1	19
10	1	19
9	1	20
1	1	21
3	1	22
1	2	23	24
3	1	25
5	1	25
5	2	26	27
9	1	28
4	1	28
10	1	29
1	1	30
6	1	31
7	1	32
0	0
